column=9;
row=9;
left=[0, 0, 3, 4, 2, 0, 4, 2, 0];
right=[0, 5, 0, 0, 0, 0, 0, 0, 3];
top=[0, 0, 0, 0, 0, 3, 1, 0, 3];
bottom=[0, 0, 0, 3, 0, 5, 0, 2, 0];
Board=[|3,6,4,0,0,0,9,2,0|0,5,8,3,0,6,0,4,1|0,0,0,0,4,0,0,6,8|0,4,0,0,5,0,0,0,2|0,0,9,4,0,0,8,0,0|5,0,0,0,0,3,0,0,0|4,0,0,0,6,0,0,0,0|0,0,0,0,0,0,0,7,0|0,0,0,0,0,0,0,8,0|]